c --- [ banner ] -------------------------------------------------------------
c 
c CaDiCaL Radically Simplified CDCL SAT Solver
c Copyright (c) 2016-2021 A. Biere, M. Fleury, N. Froleyks
c 
c Version 1.5.2 a5f15211db36c3956764e18194dd5bd63bf3b5e6
c g++ (GCC) 9.3.0 -Wall -Wextra -O3 -DNDEBUG
c Fri Oct 21 01:27:37 EDT 2022 Linux gra-login3 3.10.0-1160.66.1.el7.x86_64 x86_64
c 
c --- [ limit ] --------------------------------------------------------------
c 
c setting conflict limit to 200000 conflicts (due to '200000')
c 
c --- [ parsing input ] ------------------------------------------------------
c 
c reading DIMACS file from '33.cubes357.adj'
c opening file to read '33.cubes357.adj'
c found 'p cnf 6160 1595469' header
c parsed 1595469 clauses in 18.86 seconds process time
c closing file '33.cubes357.adj'
c after reading 1457566736 bytes 1390.0 MB
c 
c --- [ options ] ------------------------------------------------------------
c 
c all options are set to their default value
c 
c --- [ solving ] ------------------------------------------------------------
c 
c time measured in process time since initialization
c 
c  seconds    reductions  redundant   irredundant
c          MB     restarts       trail       variables
c            level   conflicts       glue         remaining
c 
c * 18.87 1365  0 0   0    0    0  0% 0 1595422 2441 40%
c { 20.15 1425  0 0   0    0    0  0% 0 1595422 2441 40%
c i 20.58 1434 1101 0   0   11   10 36% 1 1595422 2429 39%
c i 23.13 1482 555 0  11   64   61 34% 25 1595422 2425 39%
c i 23.47 1484 550 0  12   65   61 34% 25 1595422 2424 39%
c i 23.59 1484 527 0  13   70   65 33% 28 1595422 2422 39%
c i 23.82 1484 472 0  17   82   75 32% 31 1595422 2421 39%
c i 23.82 1484 467 0  17   83   75 32% 30 1595422 2420 39%
c i 23.83 1484 457 0  17   85   76 31% 30 1595422 2419 39%
c i 23.85 1484 448 0  18   87   77 31% 30 1595422 2418 39%
c i 23.85 1484 436 0  18   90   79 31% 30 1595422 2417 39%
c i 24.23 1485 371 0  20  110   97 31% 29 1595422 2416 39%
c i 24.84 1488 295 0  23  146  130 30% 30 1595422 2415 39%
c i 24.93 1489 292 0  23  148  131 30% 30 1595422 2414 39%
c i 24.94 1489 288 0  23  150  132 30% 30 1595422 2413 39%
c i 25.57 1491 215 0  24  221  190 29% 30 1595422 2412 39%
c i 25.64 1491 213 0  24  228  196 29% 31 1595422 2411 39%
c i 25.83 1493 206 0  24  248  213 29% 31 1595422 2410 39%
c i 26.13 1493 181 0  25  287  249 29% 29 1595422 2409 39%
c - 29.90 1439 176 1  25  300  262 29% 30 368104 2409 39%
c 
c  seconds     reductions  redundant   irredundant
c          MB      restarts       trail       variables
c             level   conflicts       glue         remaining
c 
c i 30.12 1384 175 1  25  302  263 29% 29 368104 2408 39%
c i 30.41 1384 174 1  25  321  279 29% 31 368104 2407 39%
c i 30.64 1384 168 1  30  339  295 29% 30 368104 2406 39%
c i 30.66 1384 167 1  30  343  297 29% 30 368104 2405 39%
c i 30.78 1384 149 1  30  398  336 29% 29 368104 2404 39%
c i 30.82 1384 148 1  30  403  340 29% 29 368104 2403 39%
c i 30.84 1384 148 1  30  404  340 29% 29 368104 2402 39%
c i 30.87 1384 139 1  30  433  364 29% 28 368104 2401 39%
c i 30.89 1384 125 1  30  490  413 29% 27 368104 2400 39%
c i 30.97 1384 122 1  30  506  422 29% 27 368104 2399 39%
c i 30.98 1384 122 1  30  507  422 29% 27 368104 2398 39%
c i 31.01 1384 121 1  30  509  423 29% 27 368104 2397 39%
c i 31.09 1384 119 1  30  523  433 29% 27 368104 2396 39%
c i 31.09 1384 119 1  30  524  433 29% 26 368104 2395 39%
c i 31.09 1384 118 1  30  527  435 29% 26 368104 2394 39%
c i 31.09 1384 118 1  30  528  435 29% 26 368104 2393 39%
c i 31.10 1384 117 1  30  530  436 29% 26 368104 2392 39%
c i 31.11 1384 117 1  30  532  437 29% 26 368104 2391 39%
c i 31.11 1384 117 1  30  536  440 29% 26 368104 2390 39%
c i 31.16 1384 115 1  30  549  452 29% 26 368104 2389 39%
c 
c  seconds     reductions  redundant   irredundant
c          MB      restarts       trail       variables
c             level   conflicts       glue         remaining
c 
c i 31.18 1384 114 1  30  563  462 29% 26 368104 2388 39%
c i 31.22 1384 113 1  30  566  464 29% 26 368104 2387 39%
c i 31.25 1384 111 1  30  584  479 29% 26 368104 2386 39%
c i 31.28 1384 109 1  30  602  491 29% 26 368104 2385 39%
c i 31.28 1384 109 1  30  605  492 29% 26 368104 2384 39%
c i 31.34 1384 108 1  30  617  499 29% 26 368104 2383 39%
c i 31.34 1384 107 1  30  620  501 29% 26 368104 2382 39%
c i 31.34 1384 107 1  30  621  501 29% 25 368104 2381 39%
c i 31.34 1384 107 1  30  622  501 29% 25 368104 2380 39%
c i 31.35 1384 106 1  30  632  508 29% 25 368104 2379 39%
c i 31.35 1384 106 1  30  633  508 29% 25 368104 2378 39%
c i 31.35 1384 106 1  30  634  508 29% 25 368104 2377 39%
c i 31.37 1384 105 1  30  636  509 29% 25 368104 2376 39%
c i 31.37 1384 105 1  30  637  509 29% 25 368104 2375 39%
c i 31.39 1384 104 1  30  645  512 29% 25 368104 2374 39%
c i 31.39 1384 104 1  30  646  512 29% 25 368104 2373 39%
c i 31.39 1384 104 1  30  647  512 29% 25 368104 2372 39%
c i 31.54 1384 100 1  30  692  546 29% 25 368104 2371 38%
c i 31.62 1384 97 1  30  723  573 29% 25 368104 2370 38%
c i 31.66 1384 96 1  30  736  583 29% 25 368104 2369 38%
c 
c  seconds    reductions  redundant   irredundant
c          MB     restarts       trail       variables
c            level   conflicts       glue         remaining
c 
c i 31.66 1384 96 1  30  738  584 29% 25 368104 2362 38%
c i 31.66 1384 96 1  30  740  585 29% 25 368104 2361 38%
c i 31.68 1384 96 1  30  743  587 29% 25 368104 2359 38%
c i 31.71 1384 94 1  30  760  601 29% 25 368104 2358 38%
c i 31.72 1384 93 1  30  769  606 29% 25 368104 2357 38%
c i 31.75 1384 93 1  30  770  606 29% 24 368104 2356 38%
c i 31.88 1384 89 1  30  818  649 29% 24 368104 2355 38%
c i 31.96 1384 89 1  33  836  662 29% 25 368104 2353 38%
c i 32.03 1384 88 1  35  844  669 29% 25 368104 2352 38%
c i 32.04 1384 88 1  36  847  671 29% 25 368104 2351 38%
c i 32.05 1384 88 1  36  848  671 29% 25 368104 2350 38%
c i 32.08 1384 87 1  36  863  684 29% 24 368104 2349 38%
c i 32.21 1384 85 1  36  921  733 29% 24 368104 2348 38%
c i 32.22 1384 84 1  36  937  736 29% 24 368104 2347 38%
c i 32.23 1384 83 1  36  955  747 29% 24 368104 2346 38%
c } 32.36 1384 80 1  36 1000  782 29% 23 368104 2346 38%
c [ 32.36 1384  0 1  36 1000  782  0% 0 368104 2346 38%
c O 32.38 1384 18 1  36 1006  786 25% 14 368104 2346 38%
c i 32.70 1385 11 1  36 1044  810 25% 9 368104 2345 38%
c i 32.72 1385 11 1  36 1045  810 25% 9 368104 2344 38%
c 
c  seconds    reductions  redundant  irredundant
c          MB     restarts       trail      variables
c            level   conflicts       glue        remaining
c 
c i 32.73 1385 11 1  36 1049  812 25% 8 368104 2343 38%
c i 32.77 1385 12 1  36 1063  823 26% 9 368104 2342 38%
c i 32.77 1385 12 1  36 1066  824 26% 9 368104 2341 38%
c i 32.77 1385 12 1  36 1067  824 26% 9 368104 2340 38%
c i 32.84 1385 13 1  36 1073  829 26% 9 368104 2339 38%
c i 32.88 1385 15 1  36 1091  840 27% 11 368104 2338 38%
c i 32.95 1385 15 1  36 1151  859 28% 12 368104 2337 38%
c i 33.11 1385 16 1  36 1163  867 28% 12 368104 2336 38%
c i 33.12 1385 16 1  36 1165  868 28% 12 368104 2335 38%
c i 33.13 1385 16 1  36 1169  870 28% 12 368104 2334 38%
c i 33.23 1385 19 1  36 1217  899 29% 14 368104 2333 38%
c i 33.24 1385 19 1  36 1224  903 29% 15 368104 2332 38%
c i 33.24 1385 20 1  36 1233  909 29% 15 368104 2331 38%
c - 34.04 1547 20 2  36 1240  791 29% 15 367697 2331 38%
c i 34.22 1547 20 2  36 1276  817 29% 15 367697 2330 38%
c i 34.22 1547 20 2  36 1277  817 29% 15 367697 2329 38%
c i 34.22 1547 20 2  36 1278  817 29% 15 367697 2328 38%
c i 34.22 1547 20 2  36 1280  818 29% 15 367697 2327 38%
c i 34.27 1547 20 2  36 1289  825 29% 15 367697 2326 38%
c i 34.61 1547 20 2  36 1469  914 30% 16 367697 2325 38%
c 
c  seconds    reductions  redundant   irredundant
c          MB     restarts       trail       variables
c            level   conflicts       glue         remaining
c 
c i 34.67 1547 20 2  36 1524  939 30% 16 367697 2324 38%
c i 35.60 1547 20 2  37 2391 1353 31% 16 367697 2323 38%
c - 36.22 1545 21 3  37 2650 1134 31% 17 367673 2323 38%
c i 36.64 1544 21 3  37 2680 1147 55% 17 367673 2322 38%
c ] 36.81 1544 21 3  37 3001 1337 55% 18 367673 2322 38%
c { 36.81 1544 80 3  37 3001 1337 77% 23 367673 2322 38%
c F 36.84 1545 80 3  37 3007 1341 77% 23 367673 2322 38%
c i 37.05 1545 77 3  37 3054 1375 75% 23 367673 2321 38%
c i 37.20 1545 73 3  37 3130 1426 73% 22 367673 2320 38%
c i 37.25 1545 72 3  37 3155 1446 73% 22 367673 2319 38%
c i 37.32 1545 70 3  37 3205 1479 71% 22 367673 2318 38%
c i 37.33 1545 69 3  37 3214 1486 71% 22 367673 2317 38%
c i 38.00 1545 47 3  42 4097 1944 61% 18 367673 2316 38%
c i 39.04 1545 49 3  69 4221 2057 60% 19 367673 2315 38%
c i 39.05 1545 49 3  69 4223 2058 60% 19 367673 2314 38%
c i 39.07 1545 49 3  71 4228 2062 60% 19 367673 2313 38%
c i 39.50 1545 50 3  88 4288 2118 59% 19 367673 2312 38%
c i 40.33 1545 52 3 115 4410 2220 58% 21 367673 2311 38%
c i 40.62 1545 52 3 121 4436 2243 58% 21 367673 2310 38%
c - 41.95 1541 53 4 141 4528 1764 58% 21 367634 2310 38%
c 
c  seconds    reductions  redundant   irredundant
c          MB     restarts       trail       variables
c            level   conflicts       glue         remaining
c 
c i 41.99 1541 53 4 141 4529 1764 58% 21 367634 2309 37%
c i 42.22 1541 53 4 148 4566 1787 57% 21 367634 2308 37%
c i 42.99 1541 54 4 162 4621 1838 57% 22 367634 2297 37%
c i 43.00 1541 54 4 162 4622 1838 57% 22 367634 2289 37%
c i 43.01 1541 54 4 162 4623 1838 57% 22 367634 2280 37%
c i 43.14 1541 54 4 164 4630 1843 57% 22 367634 2279 37%
c i 44.81 1541 55 4 206 4806 1993 56% 23 367634 2278 37%
c i 44.83 1541 55 4 206 4814 2000 56% 23 367634 2277 37%
c i 44.97 1541 56 4 212 4842 2023 56% 23 367634 2276 37%
c i 45.38 1541 56 4 233 4928 2103 55% 23 367634 2275 37%
c d 46.53 1541 56 4 250 5000 2158 55% 24 320921 2263 37%
c 2 46.86 1541 56 4 250 5000 3372 55% 24 320894 2261 37%
c p 53.64 1541 56 4 250 5000 8398 55% 24 320894 2192 36%
c d 54.17 1541 56 4 250 5000 7263 55% 24 320192 2187 36%
c # 56.88 1541 51 4 316 6009 8028 52% 23 320192 2187 36%
c - 59.36 1507 49 5 394 6876 2979 52% 24 320192 2187 36%
c } 59.48 1507 49 5 394 7003 3073 52% 24 320192 2187 36%
c [ 59.48 1507 21 5 394 7003 3073 55% 18 320192 2187 36%
c - 61.05 1387 23 6 396 9585 3260 51% 19 320192 2187 36%
c ] 61.26 1387 23 6 396 9797 3393 52% 20 320192 2187 36%
c 
c  seconds    reductions  redundant   irredundant
c          MB     restarts       trail       variables
c            level   conflicts       glue         remaining
c 
c 1 61.26 1387 23 6 396 9797 3393 52% 20 320192 2187 36%
c 
c --- [ writing output ] -----------------------------------------------------
c 
c writing simplified CNF to DIMACS file 'simp/33.cubes357.adj.simp1'
c * 61.26 1387 23 6 396 9797 3393 52% 20 320192 2187 36%
c opening file to write 'simp/33.cubes357.adj.simp1'
c writing 'p cnf 6160 320192' header
c closing file 'simp/33.cubes357.adj.simp1'
c after writing 139511427 bytes 133.0 MB
c wrote 320192 clauses in 0.98 seconds process time
c 
c --- [ writing extension ] --------------------------------------------------
c 
c writing extension stack to 'simp/33.cubes357.adj.ext1'
c opening file to write 'simp/33.cubes357.adj.ext1'
c closing file 'simp/33.cubes357.adj.ext1'
c after writing 12717 bytes 0.0 MB
c wrote 848 witnesses in 0.00 seconds process time
c 
c --- [ result ] -------------------------------------------------------------
c 
s SATISFIABLE
c 
c --- [ run-time profiling ] -------------------------------------------------
c 
c process time taken by individual solving procedures
c (percentage relative to process time for solving)
c 
c        34.12   80.47% search
c        26.60   62.75% unstable
c        18.86   44.50% parse
c         8.28   19.53% simplify
c         6.78   16.00% probe
c         6.23   14.69% stable
c         1.28    3.03% lucky
c         0.06    0.13% ternary
c   =================================
c        42.39   68.11% solve
c 
c last line shows process time for solving
c (percentage relative to total process time)
c 
c --- [ statistics ] ---------------------------------------------------------
c 
c chronological:              2328        23.76 %  of conflicts
c conflicts:                  9797       231.10    per second
c decisions:                 49336      1163.76    per second
c fixed:                       810        13.15 %  of all variables
c learned:                    9551        97.49 %  per conflict
c learned_lits:            1622699       100.00 %  learned literals
c minimized:                     0         0.00 %  learned literals
c shrunken:                1138513        70.16 %  learned literals
c minishrunken:              77730         4.79 %  learned literals
c propagations:            1731077         0.04 M  per second
c reduced:                    3263        33.31 %  per conflict
c rephased:                      3      3265.67    interval
c restarts:                    396        24.74    interval
c stabilizing:                   2        48.94 %  of conflicts
c substituted:                  19         0.31 %  of all variables
c subsumed:                   2947         0.09 %  of all clauses
c ternary:                    1215         0.59 %  of resolved
c weakened:                     38         2.00    average size
c 
c seconds are measured in process time for solving
c 
c --- [ resources ] ----------------------------------------------------------
c 
c total process time since initialization:        62.24    seconds
c total real time since initialization:           62.31    seconds
c maximum resident set size of process:         1706.21    MB
c 
c --- [ shutting down ] ------------------------------------------------------
c 
c exit 10
WARNING! DIMACS header mismatch: wrong number of variables.
============================[ Problem Statistics ]=============================
|                                                                             |
|  Number of variables:          6120                                         |
|  Number of clauses:          320194                                         |
|  Parse time:                   1.82 s                                       |
|  Simplification time:          0.03 s                                       |
|                                                                             |
============================[ Search Statistics ]====================================================
| Conflicts |          ORIGINAL         |          LEARNT          | Num Sols |      SUBGRAPHS      |
|           |    Vars  Clauses Literals |    Limit  Clauses Lit/Cl |          | Canonical Noncanon. |
=====================================================================================================
|       116 |    6029   320210 30337788 |     2000      116     72 |        0 |        27        16 |
|       270 |    6029   320214 30337865 |     2000      270     88 |        0 |        38        20 |
|       617 |    6029   320336 30339706 |     2000      617     66 |        0 |       128       142 |
|       955 |    6029   320337 30339718 |     2000      955     75 |        0 |       140       143 |
|      1526 |    6029   320402 30340835 |     2000     1526     77 |        0 |       170       208 |
|      2287 |    6029   320404 30340858 |     3604     1291     61 |        0 |       181       210 |
|      3653 |    6029   320631 30344028 |     3604     2657     74 |        0 |       271       437 |
|      5491 |    6029   320761 30346163 |     5002     2693     63 |        0 |       325       567 |
|      8342 |    6029   321050 30352279 |     6303     3045     51 |        0 |       416       856 |
|     12806 |    6029   321670 30362417 |     7561     4367     45 |        0 |       709      1476 |
|     19793 |    6029   322891 30381663 |     8786     7579     56 |        0 |      1154      2697 |
|     31778 |    6002   326227 30427704 |    11204    10181     43 |        0 |      2122      6033 |
|     46724 |    6002   328199 30458784 |    13615    13339     55 |        0 |      2708      8005 |
|     68575 |    6002   330589 30490747 |    17213    12988     44 |        0 |      3694     10395 |
|     99992 |    6002   332814 30516216 |    20817    16809     52 |        0 |      4720     12620 |
|    145627 |    6002   334660 30537770 |    25616    17243     43 |        0 |      5598     14466 |
=====================================================================================================
Number of solutions   : 0
Canonical subgraphs   : 7069           (35 /sec)
          order  3    : 1              (200000 /sec)
          order  4    : 1              (500000 /sec)
          order  5    : 1              (250000 /sec)
          order  6    : 1              (52632 /sec)
          order  7    : 2              (10152 /sec)
          order  8    : 4              (2107 /sec)
          order  9    : 9              (433 /sec)
          order 10    : 39             (135 /sec)
          order 11    : 153            (64 /sec)
          order 12    : 847            (58 /sec)
          order 13    : 830            (68 /sec)
          order 14    : 1429           (47 /sec)
          order 15    : 1262           (35 /sec)
          order 16    : 672            (27 /sec)
          order 17    : 1141           (22 /sec)
          order 18    : 508            (22 /sec)
          order 19    : 119            (22 /sec)
          order 20    : 26             (23 /sec)
          order 21    : 24             (22 /sec)
          order 22    : 0              (-nan /sec)
Noncanonical subgraphs: 18093          (540 /sec)
          order  3    : 0              (-nan /sec)
          order  4    : 0              (-nan /sec)
          order  5    : 0              (-nan /sec)
          order  6    : 0              (-nan /sec)
          order  7    : 0              (-nan /sec)
          order  8    : 0              (-nan /sec)
          order  9    : 0              (-nan /sec)
          order 10    : 0              (-nan /sec)
          order 11    : 0              (-nan /sec)
          order 12    : 0              (-nan /sec)
          order 13    : 8237           (2541 /sec)
          order 14    : 3429           (2637 /sec)
          order 15    : 2126           (1267 /sec)
          order 16    : 3935           (184 /sec)
          order 17    : 340            (73 /sec)
          order 18    : 0              (-nan /sec)
          order 19    : 0              (-nan /sec)
          order 20    : 0              (-nan /sec)
          order 21    : 0              (-nan /sec)
Canonicity checking   : 203.759 s
Noncanonicity checking: 33.4787 s
Total canonicity time : 237.238 s
database reductions   : 23
restarts              : 510
conflicts             : 198591         (597 /sec)
decisions             : 302284         (0.00 % random) (909 /sec)
propagations          : 20530798       (61714 /sec)
conflict literals     : 19136266       (50.77 % deleted)
actual reward         : 0.118672
Memory used           : 371.00 MB
CPU time              : 332.676 s

UNSATISFIABLE
